111 161 170 10 97 106 174 102 44 109 85 29 184 26 82 117 69 52 37 20 127 28 192 50 93 98 49 75 133 179 104 195 61 149 173 30 186 24 162 32 146 14 39 135 105 25 79 4 121 96 54 124 101 156 137 76 153 7 46 90 150 145 74 6 166 62 99 41 164 128 178 42 81 19 193 175 185 43 95 191 5 23 72 27 92 64 71 108 112 138 120 103 84 2 38 57 13 22 168 31 176 115 198 45 94 157 78 119 16 165 18 12 132 147 187 118 68 134 151 35 116 59 113 51 158 199 159 3 129 89 143 58 140 63 141 100 142 55 47 123 88 110 197 77 196 8 154 70 114 180 17 60 80 144 73 87 131 148 152 194 188 0 126 190 189 9 33 56 40 11 183 66 21 125 83 155 160 139 67 122 91 136 169 163 15 130 182 107 86 172 1 167 177 34 36 181 53 171 65 48 

